words_hard_train/1154.qaiger
aag 130 24 0 1 106
2
4
8
12
16
20
24
28
36
44
60
76
92
108
124
138
146
160
174
188
204
214
232
250
260
6 3 5
10 6 9
14 10 13
18 14 17
22 18 21
26 22 25
30 26 29
32 27 28
34 31 33
38 36 2
40 2 4
42 41 7
46 43 45
48 42 44
50 47 49
52 38 50
54 53 49
56 7 8
58 57 11
62 59 61
64 58 60
66 63 65
68 55 66
70 69 65
72 11 12
74 73 15
78 75 77
80 74 76
82 79 81
84 71 82
86 85 81
88 15 16
90 89 19
94 91 93
96 90 92
98 95 97
100 87 98
102 101 97
104 19 20
106 105 23
110 107 109
112 106 108
114 111 113
116 103 114
118 117 113
120 23 24
122 27 121
126 122 124
128 119 127
130 123 125
132 128 131
134 133 127
136 35 134
140 137 139
142 34 135
144 140 143
148 145 147
150 144 146
152 149 151
154 102 115
156 155 109
158 156 117
162 158 161
164 159 160
166 163 165
168 70 83
170 169 85
172 170 77
176 172 175
178 173 174
180 177 179
182 54 67
184 183 61
186 184 69
190 186 189
192 187 188
194 191 193
196 180 194
198 39 51
200 199 45
202 200 53
206 203 205
208 202 204
210 207 209
212 37 2
216 212 215
218 213 214
220 217 219
222 211 220
224 196 222
226 86 99
228 227 93
230 228 101
234 230 233
236 231 232
238 235 237
240 224 238
242 166 240
244 118 123
246 245 125
248 246 133
252 249 251
254 248 250
256 253 255
258 242 257
260 153 258
i0 1 x2[0]
i1 1 x2[1]
i2 1 x2[2]
i3 1 x2[3]
i4 1 x2[4]
i5 1 x2[5]
i6 1 x2[6]
i7 1 x2[7]
i8 1 x1[0]
i9 1 x1[1]
i10 1 x1[2]
i11 1 x1[3]
i12 1 x1[4]
i13 1 x1[5]
i14 1 x1[6]
i15 1 x1[7]
i16 2 y2[7]
i17 2 y2[5]
i18 2 y2[3]
i19 2 y2[2]
i20 2 y2[1]
i21 2 y2[0]
i22 2 y2[4]
i23 2 y2[6]
o0 bool[0]
c
simplified
  ==
    and
      subtract
        1 x1
        1 x2
      invert
        1 x1
    2 y2
