words_hard_train/1154.qaiger.qdimacs
p cnf 130 319
a 1 2 4 69 6 38 8 10 12 14 46 18 22 54 62 30 0
e 3 5 7 9 11 13 15 16 17 19 20 21 23 24 25 26 27 28 29 31 32 33 34 35 36 37 39 40 41 42 43 44 45 47 48 49 50 51 52 53 55 56 57 58 59 60 61 63 64 65 66 67 68 70 71 72 73 74 75 76 77 78 79 80 81 82 83 84 85 86 87 88 89 90 91 92 93 94 95 96 97 98 99 100 101 102 103 104 105 106 107 108 109 110 111 112 113 114 115 116 117 118 119 120 121 122 123 124 125 126 127 128 129 130 0
1 2 3 0
-1 -3 0
-2 -3 0
-3 4 5 0
3 -5 0
-4 -5 0
-5 6 7 0
5 -7 0
-6 -7 0
-7 8 9 0
7 -9 0
-8 -9 0
-9 10 11 0
9 -11 0
-10 -11 0
-11 12 13 0
11 -13 0
-12 -13 0
-13 14 15 0
13 -15 0
-14 -15 0
13 -14 16 0
-13 -16 0
14 -16 0
15 16 17 0
-15 -17 0
-16 -17 0
-18 -1 19 0
18 -19 0
1 -19 0
-1 -2 20 0
1 -20 0
2 -20 0
20 3 21 0
-20 -21 0
-3 -21 0
21 22 23 0
-21 -23 0
-22 -23 0
-21 -22 24 0
21 -24 0
22 -24 0
23 24 25 0
-23 -25 0
-24 -25 0
-19 -25 26 0
19 -26 0
25 -26 0
26 24 27 0
-26 -27 0
-24 -27 0
3 -4 28 0
-3 -28 0
4 -28 0
28 5 29 0
-28 -29 0
-5 -29 0
29 30 31 0
-29 -31 0
-30 -31 0
-29 -30 32 0
29 -32 0
30 -32 0
31 32 33 0
-31 -33 0
-32 -33 0
27 -33 34 0
-27 -34 0
33 -34 0
34 32 35 0
-34 -35 0
-32 -35 0
5 -6 36 0
-5 -36 0
6 -36 0
36 7 37 0
-36 -37 0
-7 -37 0
37 38 39 0
-37 -39 0
-38 -39 0
-37 -38 40 0
37 -40 0
38 -40 0
39 40 41 0
-39 -41 0
-40 -41 0
35 -41 42 0
-35 -42 0
41 -42 0
42 40 43 0
-42 -43 0
-40 -43 0
7 -8 44 0
-7 -44 0
8 -44 0
44 9 45 0
-44 -45 0
-9 -45 0
45 46 47 0
-45 -47 0
-46 -47 0
-45 -46 48 0
45 -48 0
46 -48 0
47 48 49 0
-47 -49 0
-48 -49 0
43 -49 50 0
-43 -50 0
49 -50 0
50 48 51 0
-50 -51 0
-48 -51 0
9 -10 52 0
-9 -52 0
10 -52 0
52 11 53 0
-52 -53 0
-11 -53 0
53 54 55 0
-53 -55 0
-54 -55 0
-53 -54 56 0
53 -56 0
54 -56 0
55 56 57 0
-55 -57 0
-56 -57 0
51 -57 58 0
-51 -58 0
57 -58 0
58 56 59 0
-58 -59 0
-56 -59 0
11 -12 60 0
-11 -60 0
12 -60 0
13 60 61 0
-13 -61 0
-60 -61 0
-61 -62 63 0
61 -63 0
62 -63 0
59 63 64 0
-59 -64 0
-63 -64 0
61 62 65 0
-61 -65 0
-62 -65 0
-64 65 66 0
64 -66 0
-65 -66 0
66 63 67 0
-66 -67 0
-63 -67 0
17 -67 68 0
-17 -68 0
67 -68 0
68 69 70 0
-68 -70 0
-69 -70 0
-17 67 71 0
17 -71 0
-67 -71 0
-70 71 72 0
70 -72 0
-71 -72 0
72 73 74 0
-72 -74 0
-73 -74 0
-72 -73 75 0
72 -75 0
73 -75 0
74 75 76 0
-74 -76 0
-75 -76 0
-51 57 77 0
51 -77 0
-57 -77 0
77 54 78 0
-77 -78 0
-54 -78 0
-78 58 79 0
78 -79 0
-58 -79 0
-79 80 81 0
79 -81 0
-80 -81 0
79 -80 82 0
-79 -82 0
80 -82 0
81 82 83 0
-81 -83 0
-82 -83 0
-35 41 84 0
35 -84 0
-41 -84 0
84 42 85 0
-84 -85 0
-42 -85 0
-85 38 86 0
85 -86 0
-38 -86 0
-86 87 88 0
86 -88 0
-87 -88 0
86 -87 89 0
-86 -89 0
87 -89 0
88 89 90 0
-88 -90 0
-89 -90 0
-27 33 91 0
27 -91 0
-33 -91 0
91 30 92 0
-91 -92 0
-30 -92 0
-92 34 93 0
92 -93 0
-34 -93 0
-93 94 95 0
93 -95 0
-94 -95 0
93 -94 96 0
-93 -96 0
94 -96 0
95 96 97 0
-95 -97 0
-96 -97 0
-90 -97 98 0
90 -98 0
97 -98 0
19 25 99 0
-19 -99 0
-25 -99 0
99 22 100 0
-99 -100 0
-22 -100 0
-100 26 101 0
100 -101 0
-26 -101 0
101 102 103 0
-101 -103 0
-102 -103 0
-101 -102 104 0
101 -104 0
102 -104 0
103 104 105 0
-103 -105 0
-104 -105 0
18 -1 106 0
-18 -106 0
1 -106 0
-106 107 108 0
106 -108 0
-107 -108 0
106 -107 109 0
-106 -109 0
107 -109 0
108 109 110 0
-108 -110 0
-109 -110 0
105 -110 111 0
-105 -111 0
110 -111 0
-98 -111 112 0
98 -112 0
111 -112 0
-43 49 113 0
43 -113 0
-49 -113 0
113 46 114 0
-113 -114 0
-46 -114 0
-114 50 115 0
114 -115 0
-50 -115 0
-115 116 117 0
115 -117 0
-116 -117 0
115 -116 118 0
-115 -118 0
116 -118 0
117 118 119 0
-117 -119 0
-118 -119 0
-112 -119 120 0
112 -120 0
119 -120 0
-83 -120 121 0
83 -121 0
120 -121 0
-59 61 122 0
59 -122 0
-61 -122 0
122 62 123 0
-122 -123 0
-62 -123 0
-123 66 124 0
123 -124 0
-66 -124 0
124 125 126 0
-124 -126 0
-125 -126 0
-124 -125 127 0
124 -127 0
125 -127 0
126 127 128 0
-126 -128 0
-127 -128 0
-121 128 129 0
121 -129 0
-128 -129 0
76 -129 130 0
-76 -130 0
129 -130 0
130 0
